c instance by G2
c solution = 1000100
c Known solution cost is 368 
p cnf 7 30
w 28 58 26 27 90 68 71
6 1 -4 0
5 3 -7 0
-1 4 -3 0
4 -6 -2 0
6 -2 7 0
-4 2 3 0
2 -6 -1 0
5 -2 -3 0
7 -6 2 0
-4 2 7 0
-1 6 -3 0
1 6 -2 0
-3 -1 -7 0
-4 -6 2 0
6 -2 3 0
-6 -7 3 0
-6 -5 3 0
-3 5 6 0
-3 5 6 0
7 -4 -6 0
-1 -4 -5 0
-5 -3 -4 0
-7 -3 -4 0
3 -7 6 0
-2 -5 -6 0
2 1 6 0
1 -2 -6 0
-5 -3 -7 0
4 5 6 0
-1 -2 5 0
